124 196 184 190 27 51 95 116 83 148 
200 103 170 19 193 120 
142 180 43 3 136 
4 92 
54 155 88 71 144 115 121 11 97 
84 199 127 105 118 137 123 75 
143 128 125 189 112 86 33 66 67 
98 119 161 72 
42 197 181 35 164 104 25 10 77 122 141 185 
172 5 62 26 20 159 46 138 135 96 
28 6 132 78 130 171 187 150 
182 57 133 147 22 129 41 158 
165 85 45 56 53 101 192 50 81 107 
153 49 47 63 79 39 
166 21 82 
37 59 177 65 168 99 94 151 160 109 157 
174 34 76 2 
24 131 156 102 183 7 44 90 36 
48 15 179 18 68 110 178 
9 12 173 108 38 32 114 55 194 154 
195 16 40 31 117 23 74 52 106 70 
100 188 29 139 89 87 17 30 64 
163 14 162 149 186 73 93 146 
140 191 69 176 113 58 134 13 8 60 1 175 
169 152 167 61 198 111 91 145 80 126 
